%BLOCK lattice_cart
       4.20166206914588      -0.551316489310674E-04  -0.581360030147937E-03
      -2.09053064863504        4.80068615700310      -0.167281602467817E-02
     -0.866892899771971       -2.37412049716641        10.2097293901935    
%ENDBLOCK lattice_cart

%BLOCK positions_frac
   Sn             0.155092034923869       0.744792851160015       0.275333028792775
   Sn             0.375648265076131       0.271558048839985       0.716358871207225
%ENDBLOCK positions_frac
#              Generated by Buildcell
#
# at 01:17:25 (GMT+0.0) 11th November 2018
# in /home/s1422421/work/Z2Pack/examples/fp/airss-0.9.1/examples/Sn
# on studentrun01.ph.ed.ac.uk
# by s1422421
#
# compiler GCC version 4.8.5 20150623 (Red Hat 4.8.5-28)
# options -cpp -mtune=generic -march=x86-64 -g -O0
#
# seed   834227851   -10466843   542008076  1398250633   487633424  -699931769  -747147171  -917988731  1457847290  1517251145  1686579872  -811751151
#
#      Author: C. J. Pickard (cjp20@cam.ac.uk)
#                Space group: P1
#


KPOINTS_MP_SPACING 0.1

%BLOCK SPECIES_POT
QC5
%ENDBLOCK SPECIES_POT

SNAP_TO_SYMMETRY
SYMMETRY_GENERATE

%BLOCK EXTERNAL_PRESSURE
0 0 0 
0 0
0
%ENDBLOCK EXTERNAL_PRESSURE
