%BLOCK lattice_cart
       4.37002405217346      -0.357430498708522E-01   0.262924966935351E-01
      0.283154557732696        5.00911167533234      -0.709355132080650E-01
       1.80451362413246       0.328030184879360        6.20224319874908    
%ENDBLOCK lattice_cart

%BLOCK positions_frac
   Sn             0.228440304315999       0.664138344253957       0.587473151044839
   Sn             0.285414695684001       0.310130855746044       0.784871548955160
%ENDBLOCK positions_frac
#              Generated by Buildcell
#
# at 01:15:58 (GMT+0.0) 11th November 2018
# in /home/s1422421/work/Z2Pack/examples/fp/airss-0.9.1/examples/Sn
# on studentrun01.ph.ed.ac.uk
# by s1422421
#
# compiler GCC version 4.8.5 20150623 (Red Hat 4.8.5-28)
# options -cpp -mtune=generic -march=x86-64 -g -O0
#
# seed -1734624832   -10466843   358755335 -2065432501  1822682499  2107825950  1742301850 -1840041476 -1829254827   234984998    31521824  2090540500
#
#      Author: C. J. Pickard (cjp20@cam.ac.uk)
#                Space group: P1
#


KPOINTS_MP_SPACING 0.1

%BLOCK SPECIES_POT
QC5
%ENDBLOCK SPECIES_POT

SNAP_TO_SYMMETRY
SYMMETRY_GENERATE

%BLOCK EXTERNAL_PRESSURE
0 0 0 
0 0
0
%ENDBLOCK EXTERNAL_PRESSURE
