# CELL file written 01:16:39 (GMT+0.0) 11th November 2018 from run ./Sn-10384-9923-7

%BLOCK lattice_cart
   ANG
       4.37002405217346      -0.357430498708522E-01   0.262924966935351E-01
      0.283154557732696        5.00911167533234      -0.709355132080650E-01
       1.80451362413246       0.328030184879360        6.20224319874908    
%ENDBLOCK lattice_cart

%BLOCK positions_frac
   Sn             0.228440304315999       0.664138344253957       0.587473151044839
   Sn             0.285414695684001       0.310130855746044       0.784871548955160
%ENDBLOCK positions_frac

FIX_COM : true

%BLOCK species_gamma
   radsectesla
   Sn        -100317000.0    
%ENDBLOCK species_gamma

%BLOCK species_pot
   Sn      3|2.2|7|7|9|50:51:42(qc=5)
%ENDBLOCK species_pot

SYMMETRY_TOL :     0.001000

%BLOCK symmetry_ops
# Symm. op. 1       E
          1.000000000000000       0.000000000000000       0.000000000000000
          0.000000000000000       1.000000000000000       0.000000000000000
          0.000000000000000       0.000000000000000       1.000000000000000
          0.000000000000000       0.000000000000000       0.000000000000000
# Symm. op. 2       I
         -1.000000000000000       0.000000000000000       0.000000000000000
          0.000000000000000      -1.000000000000000       0.000000000000000
          0.000000000000000       0.000000000000000      -1.000000000000000
          0.513855000000000       0.974269200000000       0.372344699999999
%ENDBLOCK symmetry_ops

kpoint_mp_grid :    2   2   2

