# CELL file written 01:18:29 (GMT+0.0) 11th November 2018 from run ./Sn-19022-2423-1

%BLOCK lattice_cart
   ANG
       4.20166206914588      -0.551316489310674E-04  -0.581360030147937E-03
      -2.09053064863504        4.80068615700310      -0.167281602467817E-02
     -0.866892899771971       -2.37412049716641        10.2097293901935    
%ENDBLOCK lattice_cart

%BLOCK positions_frac
   Sn             0.155092034923869       0.744792851160015       0.275333028792775
   Sn             0.375648265076131       0.271558048839985       0.716358871207225
%ENDBLOCK positions_frac

FIX_COM : true

%BLOCK species_gamma
   radsectesla
   Sn        -100317000.0    
%ENDBLOCK species_gamma

%BLOCK species_pot
   Sn      3|2.2|7|7|9|50:51:42(qc=5)
%ENDBLOCK species_pot

SYMMETRY_TOL :     0.001000

%BLOCK symmetry_ops
# Symm. op. 1       E
          1.000000000000000       0.000000000000000       0.000000000000000
          0.000000000000000       1.000000000000000       0.000000000000000
          0.000000000000000       0.000000000000000       1.000000000000000
          0.000000000000000       0.000000000000000       0.000000000000000
# Symm. op. 2       I
         -1.000000000000000       0.000000000000000       0.000000000000000
         -0.000000000000000      -1.000000000000000       0.000000000000000
          0.000000000000000       0.000000000000000      -1.000000000000000
          0.530740300000000       0.016350900000000       0.991691900000000
%ENDBLOCK symmetry_ops

kpoint_mp_grid :    3   3   1

