%BLOCK lattice_cart
       3.42425591073507       0.889546308155508E-02   0.927202822510221E-03
      -1.08029088651240        5.11597831418409       0.331582862262879E-01
     -0.549170565646174      -0.864001588001821        8.35922727075585    
%ENDBLOCK lattice_cart

%BLOCK positions_frac
   Sn             0.724722863124447       0.638269065015934       0.732506219923009
   Sn             0.922243736875553       0.047808434984066       0.848651980076990
%ENDBLOCK positions_frac
#              Generated by Buildcell
#
# at 00:28:29 (GMT+0.0) 11th November 2018
# in /home/s1422421/work/Z2Pack/examples/fp/airss-0.9.1/examples/Sn
# on studentrun01.ph.ed.ac.uk
# by s1422421
#
# compiler GCC version 4.8.5 20150623 (Red Hat 4.8.5-28)
# options -cpp -mtune=generic -march=x86-64 -g -O0
#
# seed  -389035701  -418071517  1974880444   797426949 -1265747450 -1766137809  -370824934  1606203765 -1083170763  2032996119  1428657696 -1525813999
#
#      Author: C. J. Pickard (cjp20@cam.ac.uk)
#                Space group: P1
#


KPOINTS_MP_SPACING 0.1

%BLOCK SPECIES_POT
QC5
%ENDBLOCK SPECIES_POT

SNAP_TO_SYMMETRY
SYMMETRY_GENERATE

%BLOCK EXTERNAL_PRESSURE
100 0 0 
100 0
100
%ENDBLOCK EXTERNAL_PRESSURE
