# CELL file written 14:57:37 (GMT+0.0) 11th November 2018 from run ./Sn-20183-5175-14

%BLOCK lattice_cart
   ANG
       3.04023089255991        1.24067980098278       0.316544740024579    
       2.24799619189385        3.92476255722316        1.84181200992631    
       1.54651108217463        3.60176969746070        7.74188752828886    
%ENDBLOCK lattice_cart

%BLOCK positions_frac
   Sn             0.113024786397090       0.692506069483888       0.586689759724129
   Sn             0.664845513602910       0.084334930516109       0.102768440275871
%ENDBLOCK positions_frac

FIX_COM : true

%BLOCK species_gamma
   radsectesla
   Sn        -100317000.0    
%ENDBLOCK species_gamma

%BLOCK species_pot
   Sn      3|2.2|7|7|9|50:51:42(qc=5)
%ENDBLOCK species_pot

SYMMETRY_TOL :     0.001000

%BLOCK symmetry_ops
# Symm. op. 1       E
          1.000000000000000       0.000000000000000       0.000000000000000
         -0.000000000000000       1.000000000000000      -0.000000000000000
          0.000000000000000       0.000000000000000       1.000000000000000
          0.000000000000000       0.000000000000000       0.000000000000000
# Symm. op. 2       I
         -1.000000000000000      -0.000000000000000      -0.000000000000000
          0.000000000000000      -1.000000000000000       0.000000000000000
         -0.000000000000000      -0.000000000000000      -1.000000000000000
          0.777870300000000       0.776840999999997       0.689458199999999
%ENDBLOCK symmetry_ops

kpoint_mp_grid :    6   5   2

