%BLOCK LATTICE_ABC
5.8315 5.8315	3.1814
90.000	90.000	90.000
%ENDBLOCK LATTICE_ABC

#SPECIES=Sn
#NATOM=2

#SLACK=0.25
#OVERLAP=0.1
#MINSEP=2.5
#COMPACT

KPOINTS_MP_SPACING 0.1

SYMMETRY_GENERATE
SNAP_TO_SYMMETRY

%BLOCK SPECIES_POT
QC5
%ENDBLOCK SPECIES_POT
