%BLOCK lattice_cart
       3.04023089255991        1.24067980098278       0.316544740024579    
       2.24799619189385        3.92476255722316        1.84181200992631    
       1.54651108217463        3.60176969746070        7.74188752828886    
%ENDBLOCK lattice_cart

%BLOCK positions_frac
   Sn             0.113024786397090       0.692506069483888       0.586689759724129
   Sn             0.664845513602910       0.084334930516109       0.102768440275871
%ENDBLOCK positions_frac
#              Generated by Buildcell
#
# at 14:25:24 (GMT+0.0) 11th November 2018
# in /home/s1422421/work/Z2Pack/examples/fp/airss-0.9.1/examples/Sn
# on studentrun01.ph.ed.ac.uk
# by s1422421
#
# compiler GCC version 4.8.5 20150623 (Red Hat 4.8.5-28)
# options -cpp -mtune=generic -march=x86-64 -g -O0
#
# seed -1187136663  1898975015   776031831  -380881506   404519845   -64282718   263563241 -1657744785 -1691675264  1097963532  1737787192 -1807208712
#
#      Author: C. J. Pickard (cjp20@cam.ac.uk)
#                Space group: P1
#


KPOINTS_MP_SPACING 0.1

%BLOCK SPECIES_POT
QC5
%ENDBLOCK SPECIES_POT

SNAP_TO_SYMMETRY
SYMMETRY_GENERATE

%BLOCK EXTERNAL_PRESSURE
0 0 0 
0 0
0
%ENDBLOCK EXTERNAL_PRESSURE
