# CELL file written 00:29:20 (GMT+0.0) 11th November 2018 from run ./Sn-2384-5819-9

%BLOCK lattice_cart
   ANG
       3.42425591073507       0.889546308155508E-02   0.927202822510221E-03
      -1.08029088651240        5.11597831418409       0.331582862262879E-01
     -0.549170565646174      -0.864001588001821        8.35922727075585    
%ENDBLOCK lattice_cart

%BLOCK positions_frac
   Sn             0.724722863124447       0.638269065015934       0.732506219923009
   Sn             0.922243736875553       0.047808434984066       0.848651980076990
%ENDBLOCK positions_frac

FIX_COM : true

%BLOCK species_gamma
   radsectesla
   Sn        -100317000.0    
%ENDBLOCK species_gamma

%BLOCK species_pot
   Sn      3|2.2|7|7|9|50:51:42(qc=5)
%ENDBLOCK species_pot

SYMMETRY_TOL :     0.001000

%BLOCK symmetry_ops
# Symm. op. 1       E
          1.000000000000000       0.000000000000000       0.000000000000000
          0.000000000000000       1.000000000000000       0.000000000000000
         -0.000000000000000       0.000000000000000       1.000000000000000
          0.000000000000000       0.000000000000000       0.000000000000000
# Symm. op. 2       I
         -1.000000000000000       0.000000000000000       0.000000000000000
          0.000000000000000      -1.000000000000000       0.000000000000000
          0.000000000000000       0.000000000000000      -1.000000000000000
          0.646966600000000       0.686077500000000       0.581158200000000
%ENDBLOCK symmetry_ops

kpoint_mp_grid :    3   2   2

%BLOCK external_pressure
   GPA
       100.00000000      0.00000000      0.00000000
       100.00000000      0.00000000
       100.00000000
%ENDBLOCK external_pressure

