# CELL file written 14:38:07 (GMT+0.0) 11th November 2018 from run ./Sn-19595-7369-74

%BLOCK lattice_cart
   ANG
       2.91076434665619       0.246811771310725E-01   0.186113530268730    
       1.07364314598822        3.86757018762476      -0.772083839577400E-01
       1.41053082181658      -0.246951749272270        3.74561668943891    
%ENDBLOCK lattice_cart

%BLOCK positions_frac
   Sn             0.182514833955098       0.698310910943827       0.656129407932506
   Sn             1.180052566044901       0.198515989056172       0.156467492067492
%ENDBLOCK positions_frac

FIX_COM : true

%BLOCK species_gamma
   radsectesla
   Sn        -100317000.0    
%ENDBLOCK species_gamma

%BLOCK species_pot
   Sn      3|2.2|7|7|9|50:51:42(qc=5)
%ENDBLOCK species_pot

SYMMETRY_TOL :     0.001000

%BLOCK symmetry_ops
# Symm. op. 1       E
          1.000000000000000       0.000000000000000       0.000000000000000
          0.000000000000000       1.000000000000000       0.000000000000000
          0.000000000000000       0.000000000000000       1.000000000000000
          0.000000000000000       0.000000000000000       0.000000000000000
# Symm. op. 2       I
         -1.000000000000000      -0.000000000000000      -0.000000000000000
         -0.000000000000000      -1.000000000000000       0.000000000000000
          0.000000000000000       0.000000000000000      -1.000000000000000
          0.362567399999999       0.896826899999999       0.812596899999998
%ENDBLOCK symmetry_ops

kpoint_mp_grid :    4   3   3

