# CELL file written 01:15:28 (GMT+0.0) 11th November 2018 from run ./Sn-12404-1931-6

%BLOCK lattice_cart
   ANG
       2.45380227046206       0.860115992023361E-01   0.457081139848477E-01
     -0.847359482147894        2.95203949371832      -0.595577414698705E-01
     -0.993249920348699      -0.643666287922845        3.01400810680539    
%ENDBLOCK lattice_cart

%BLOCK positions_frac
   Sn             0.239218460096306       0.004191186386929       0.913519697731263
   Sn             0.755994939903696       0.642743213613072       0.226589302268737
%ENDBLOCK positions_frac

FIX_COM : true

%BLOCK species_gamma
   radsectesla
   Sn        -100317000.0    
%ENDBLOCK species_gamma

%BLOCK species_pot
   Sn      3|2.2|7|7|9|50:51:42(qc=5)
%ENDBLOCK species_pot

SYMMETRY_TOL :     0.001000

%BLOCK symmetry_ops
# Symm. op. 1       E
          1.000000000000000       0.000000000000000       0.000000000000000
          0.000000000000000       1.000000000000000       0.000000000000000
          0.000000000000000       0.000000000000000       1.000000000000000
          0.000000000000000       0.000000000000000       0.000000000000000
# Symm. op. 2       I
         -1.000000000000000      -0.000000000000000       0.000000000000000
         -0.000000000000000      -1.000000000000000       0.000000000000000
          0.000000000000000       0.000000000000000      -1.000000000000000
          0.995213400000001       0.646934400000001       0.140109000000000
%ENDBLOCK symmetry_ops

kpoint_mp_grid :    4   4   3

