%BLOCK lattice_cart
       2.45380227046206       0.860115992023361E-01   0.457081139848477E-01
     -0.847359482147894        2.95203949371832      -0.595577414698705E-01
     -0.993249920348699      -0.643666287922845        3.01400810680539    
%ENDBLOCK lattice_cart

%BLOCK positions_frac
   Sn             0.239218460096306       0.004191186386929       0.913519697731263
   Sn             0.755994939903696       0.642743213613072       0.226589302268737
%ENDBLOCK positions_frac
#              Generated by Buildcell
#
# at 01:14:22 (GMT+0.0) 11th November 2018
# in /home/s1422421/work/Z2Pack/examples/fp/airss-0.9.1/examples/Sn2
# on studentrun01.ph.ed.ac.uk
# by s1422421
#
# compiler GCC version 4.8.5 20150623 (Red Hat 4.8.5-28)
# options -cpp -mtune=generic -march=x86-64 -g -O0
#
# seed  1279471835  2096500340  1060754227  -177220840 -1549257026   346908738   999721135  1783968480  -149742482   522182393 -1830948507  1655821916
#
#      Author: C. J. Pickard (cjp20@cam.ac.uk)
#                Space group: P1
#


KPOINTS_MP_SPACING 0.1

%BLOCK SPECIES_POT
QC5
%ENDBLOCK SPECIES_POT

SNAP_TO_SYMMETRY
SYMMETRY_GENERATE

%BLOCK EXTERNAL_PRESSURE
0 0 0 
0 0
0
%ENDBLOCK EXTERNAL_PRESSURE
