# CELL file written 01:18:57 (GMT+0.0) 11th November 2018 from run ./Sn-18595-4976-1

%BLOCK lattice_cart
   ANG
       2.85418218880327      -0.675184350848169E-01   0.371577103806837E-01
      0.322792322685738        2.88113240268768      -0.237330381492067E-01
       1.27707666464348       0.590405920763812        5.23199504907419    
%ENDBLOCK lattice_cart

%BLOCK positions_frac
   Sn             1.036682783513968       0.854254474976115       0.478289241436992
   Sn             0.319530316486032       0.207849025023885       0.960016058563008
%ENDBLOCK positions_frac

FIX_COM : true

%BLOCK species_gamma
   radsectesla
   Sn        -100317000.0    
%ENDBLOCK species_gamma

%BLOCK species_pot
   Sn      3|2.2|7|7|9|50:51:42(qc=5)
%ENDBLOCK species_pot

SYMMETRY_TOL :     0.001000

%BLOCK symmetry_ops
# Symm. op. 1       E
          1.000000000000000      -0.000000000000000       0.000000000000000
         -0.000000000000000       1.000000000000000      -0.000000000000000
         -0.000000000000000       0.000000000000000       1.000000000000000
          0.000000000000000       0.000000000000000       0.000000000000000
# Symm. op. 2       I
         -1.000000000000000       0.000000000000000      -0.000000000000000
          0.000000000000000      -1.000000000000000       0.000000000000000
          0.000000000000000       0.000000000000000      -1.000000000000000
          0.356213100000000       0.062103499999999       0.438305299999999
%ENDBLOCK symmetry_ops

kpoint_mp_grid :    4   4   2

