%BLOCK lattice_cart
       2.85418218880327      -0.675184350848169E-01   0.371577103806837E-01
      0.322792322685738        2.88113240268768      -0.237330381492067E-01
       1.27707666464348       0.590405920763812        5.23199504907419    
%ENDBLOCK lattice_cart

%BLOCK positions_frac
   Sn             1.036682783513968       0.854254474976115       0.478289241436992
   Sn             0.319530316486032       0.207849025023885       0.960016058563008
%ENDBLOCK positions_frac
#              Generated by Buildcell
#
# at 01:15:56 (GMT+0.0) 11th November 2018
# in /home/s1422421/work/Z2Pack/examples/fp/airss-0.9.1/examples/Sn2
# on studentrun01.ph.ed.ac.uk
# by s1422421
#
# compiler GCC version 4.8.5 20150623 (Red Hat 4.8.5-28)
# options -cpp -mtune=generic -march=x86-64 -g -O0
#
# seed  1953922010  -494865924   108726402  1281519838   282217034 -1513123934  -865301886  1183493233  1154519955   713672882  -832744240  1830758469
#
#      Author: C. J. Pickard (cjp20@cam.ac.uk)
#                Space group: P1
#


KPOINTS_MP_SPACING 0.1

%BLOCK SPECIES_POT
QC5
%ENDBLOCK SPECIES_POT

SNAP_TO_SYMMETRY
SYMMETRY_GENERATE

%BLOCK EXTERNAL_PRESSURE
0 0 0 
0 0
0
%ENDBLOCK EXTERNAL_PRESSURE
