%BLOCK lattice_cart
       2.91076434665619       0.246811771310725E-01   0.186113530268730    
       1.07364314598822        3.86757018762476      -0.772083839577400E-01
       1.41053082181658      -0.246951749272270        3.74561668943891    
%ENDBLOCK lattice_cart

%BLOCK positions_frac
   Sn             0.182514833955098       0.698310910943827       0.656129407932506
   Sn             1.180052566044901       0.198515989056172       0.156467492067492
%ENDBLOCK positions_frac
#              Generated by Buildcell
#
# at 14:20:41 (GMT+0.0) 11th November 2018
# in /home/s1422421/work/Z2Pack/examples/fp/airss-0.9.1/examples/Sn2
# on studentrun01.ph.ed.ac.uk
# by s1422421
#
# compiler GCC version 4.8.5 20150623 (Red Hat 4.8.5-28)
# options -cpp -mtune=generic -march=x86-64 -g -O0
#
# seed -1096577820  -785946897  1568131555   -94969363 -1711919659   336252794  2113404902  1745234746   273628652 -1839196507  -124063604  1412921502
#
#      Author: C. J. Pickard (cjp20@cam.ac.uk)
#                Space group: P1
#


KPOINTS_MP_SPACING 0.1

%BLOCK SPECIES_POT
QC5
%ENDBLOCK SPECIES_POT

SNAP_TO_SYMMETRY
SYMMETRY_GENERATE

%BLOCK EXTERNAL_PRESSURE
0 0 0 
0 0
0
%ENDBLOCK EXTERNAL_PRESSURE
