# CELL file written 14:39:23 (GMT+0.0) 11th November 2018 from run ./Sn-20052-7061-74

%BLOCK lattice_cart
   ANG
       3.18035296155913       0.640922464023393       0.133154144734357    
     -0.772660204702418        4.22009627415511       0.532891588898512    
     -0.176576992505787      -0.818741770750572        2.79212514014171    
%ENDBLOCK lattice_cart

%BLOCK positions_frac
   Sn            -0.000265039321182       0.087234880285150       0.035137916664520
   Sn             0.499237639321180       0.589230319714847       0.520514283335479
%ENDBLOCK positions_frac

FIX_COM : true

%BLOCK species_gamma
   radsectesla
   Sn        -100317000.0    
%ENDBLOCK species_gamma

%BLOCK species_pot
   Sn      3|2.2|7|7|9|50:51:42(qc=5)
%ENDBLOCK species_pot

SYMMETRY_TOL :     0.001000

%BLOCK symmetry_ops
# Symm. op. 1       E
          1.000000000000000      -0.000000000000000      -0.000000000000000
          0.000000000000000       1.000000000000000       0.000000000000000
          0.000000000000000       0.000000000000000       1.000000000000000
          0.000000000000000       0.000000000000000       0.000000000000000
# Symm. op. 2       I
         -1.000000000000000       0.000000000000000       0.000000000000000
         -0.000000000000000      -1.000000000000000       0.000000000000000
          0.000000000000000       0.000000000000000      -1.000000000000000
          0.498972599999998       0.676465199999997       0.555652199999999
%ENDBLOCK symmetry_ops

kpoint_mp_grid :    3   3   4

