%BLOCK lattice_cart
       3.18035296155913       0.640922464023393       0.133154144734357    
     -0.772660204702418        4.22009627415511       0.532891588898512    
     -0.176576992505787      -0.818741770750572        2.79212514014171    
%ENDBLOCK lattice_cart

%BLOCK positions_frac
   Sn            -0.000265039321182       0.087234880285150       0.035137916664520
   Sn             0.499237639321180       0.589230319714847       0.520514283335479
%ENDBLOCK positions_frac
#              Generated by Buildcell
#
# at 14:25:16 (GMT+0.0) 11th November 2018
# in /home/s1422421/work/Z2Pack/examples/fp/airss-0.9.1/examples/Sn2
# on studentrun01.ph.ed.ac.uk
# by s1422421
#
# compiler GCC version 4.8.5 20150623 (Red Hat 4.8.5-28)
# options -cpp -mtune=generic -march=x86-64 -g -O0
#
# seed  -728516677   905132658 -1800294017  1382213639   205772889  -418293035 -1238963276  -713911331   595315754  -283089075  -931937096  1443368308
#
#      Author: C. J. Pickard (cjp20@cam.ac.uk)
#                Space group: P1
#


KPOINTS_MP_SPACING 0.1

%BLOCK SPECIES_POT
QC5
%ENDBLOCK SPECIES_POT

SNAP_TO_SYMMETRY
SYMMETRY_GENERATE

%BLOCK EXTERNAL_PRESSURE
0 0 0 
0 0
0
%ENDBLOCK EXTERNAL_PRESSURE
